96
Lattice="-1.9307577758809202e-10 7.476162239080607 5.286445016500565 6.474546421934722 -3.738081119441767 5.286445016504427 6.474546421934722 3.7380811194457637 -5.2864450165016" Properties=species:S:1:pos:R:3 pbc="T T T"
Li       4.85590982       6.54164196       4.62563939
Li       1.61863661       4.67260140       3.30402814
O        1.61863661       4.67260140       5.28644502
Li       6.47454642       0.00000000       1.98241688
Li       3.23727321       5.60712168       5.94725064
O        3.23727321      -1.86904056       2.64322251
Li       6.47454642       1.86904056      -0.66080563
Li       3.23727321       7.47616224       3.30402814
O        3.23727321       0.00000000       0.00000000
Li       4.85590982       2.80356084       1.98241688
Li       1.61863661       0.93452028       0.66080563
O        1.61863661       0.93452028       2.64322251
Li       6.47454642       3.73808112       4.62563939
Li       3.23727321       1.86904056       3.30402814
O        3.23727321       1.86904056       5.28644502
Li       8.09318303       4.67260140       7.26886190
Li       4.85590982       2.80356084       5.94725064
O        4.85590982       2.80356084       7.92966752
Li       3.23727321       1.86904056      -0.66080563
Li       6.47454642       3.73808112       8.59047315
O       -0.00000000      -0.00000000      -0.00000000
Li       6.47454642       5.60712168       1.98241688
Li       3.23727321       3.73808112       0.66080563
O        3.23727321       3.73808112       2.64322251
Li       8.09318303       6.54164196       4.62563939
Li       4.85590982       4.67260140       3.30402814
O        4.85590982       4.67260140       5.28644502
Li       9.71181963       0.00000000       1.98241688
Li       6.47454642       5.60712168       5.94725064
O        6.47454642      -1.86904056       2.64322251
Li       8.09318303       8.41068252       1.98241688
Li       4.85590982       6.54164196       0.66080563
O        4.85590982       6.54164196       2.64322251
Li       9.71181963       1.86904056      -0.66080563
Li       6.47454642       7.47616224       3.30402814
O        6.47454642       0.00000000       0.00000000
Li       3.23727321       0.00000000       1.98241688
Li       6.47454642       9.34520280       0.66080563
O        6.47454642       1.86904056      -2.64322251
Li       8.09318303       0.93452028       4.62563939
Li       4.85590982      -0.93452028       3.30402814
O        4.85590982      -0.93452028       5.28644502
Li       3.23727321       5.60712168       1.98241688
Li       6.47454642       0.00000000       5.94725064
O       -0.00000000       3.73808112       2.64322251
Li       8.09318303       2.80356084       1.98241688
Li       4.85590982       0.93452028       0.66080563
O        4.85590982       0.93452028       2.64322251
Li       9.71181963       3.73808112       4.62563939
Li       6.47454642       1.86904056       3.30402814
O        6.47454642       1.86904056       5.28644502
Li       4.85590982       8.41068252       1.98241688
Li       8.09318303       2.80356084       5.94725064
O        1.61863661       6.54164196       2.64322251
Li       8.09318303       4.67260140      -0.66080563
Li       4.85590982       2.80356084      -1.98241688
O        4.85590982       2.80356084       0.00000000
Li       9.71181963       5.60712168       1.98241688
Li       6.47454642       3.73808112       0.66080563
O        6.47454642       3.73808112       2.64322251
Li      11.33045624       6.54164196       4.62563939
Li       8.09318303       4.67260140       3.30402814
O        8.09318303       4.67260140       5.28644502
Li       6.47454642       3.73808112      -3.30402814
Li       9.71181963       5.60712168       5.94725064
O        3.23727321       1.86904056      -2.64322251
Li       3.23727321       3.73808112       4.62563939
Li       6.47454642       5.60712168      -1.98241688
O        6.47454642       5.60712168       0.00000000
Li       4.85590982       4.67260140       7.26886190
Li       8.09318303       6.54164196       0.66080563
O        8.09318303       6.54164196       2.64322251
Li       6.47454642      -1.86904056       4.62563939
Li       9.71181963       7.47616224       3.30402814
O        9.71181963       0.00000000       0.00000000
Li       4.85590982       4.67260140      -0.66080563
Li       8.09318303      -0.93452028       3.30402814
O        1.61863661       2.80356084      -0.00000000
Li      11.33045624       2.80356084       1.98241688
Li       8.09318303       0.93452028       0.66080563
O        8.09318303       0.93452028       2.64322251
Li       6.47454642       7.47616224      -0.66080563
Li       9.71181963       1.86904056       3.30402814
O        3.23727321       5.60712168      -0.00000000
Li       4.85590982       0.93452028       4.62563939
Li       8.09318303       2.80356084      -1.98241688
O        8.09318303       2.80356084       0.00000000
Li       6.47454642       1.86904056       7.26886190
Li       9.71181963       3.73808112       0.66080563
O        9.71181963       3.73808112       2.64322251
Li       1.61863661       6.54164196       4.62563939
Li      11.33045624       4.67260140       3.30402814
O        4.85590982       8.41068252      -0.00000000
Li       1.61863661       2.80356084       1.98241688
Li      11.33045624       0.93452028       0.66080563
O        4.85590982       4.67260140      -2.64322251
