96
Lattice="-1.9307577758809202e-10 7.476162239080607 5.286445016500565 6.474546421934722 -3.738081119441767 5.286445016504427 6.474546421934722 3.7380811194457637 -5.2864450165016" Properties=species:S:1:pos:R:3:momenta:R:3:energies:R:1:forces:R:3 energy=-471.7571195349214 free_energy=-471.7571195349214 stress="-0.059695319554376985 -1.5582559754474823e-09 -5.3515446780427605e-09 -1.5582559754474823e-09 -0.059695297038166194 -2.1551669917613927e-08 -5.3515446780427605e-09 -2.1551669917613927e-08 -0.0596952707692536" pbc="T T T"
Li       4.85590982       6.54164196       4.62563939       0.00000000       0.00000000       0.00000000      -4.67968311      -0.00000011      -0.00000060       0.00000114
Li       1.61863661       4.67260140       3.30402814       0.00000000       0.00000000       0.00000000      -4.67968265      -0.00000003       0.00000208       0.00000035
O        1.61863661       4.67260140       5.28644502       0.00000000       0.00000000       0.00000000      -5.38304467      -0.00000272      -0.00000165      -0.00000046
Li       6.47454642       0.00000000       1.98241688       0.00000000       0.00000000       0.00000000      -4.67968255      -0.00000073      -0.00000024      -0.00000171
Li       3.23727321       5.60712168       5.94725064       0.00000000       0.00000000       0.00000000      -4.67968279      -0.00000032       0.00000137      -0.00000046
O        3.23727321      -1.86904056       2.64322251       0.00000000       0.00000000       0.00000000      -5.38304419      -0.00000059      -0.00000173       0.00000075
Li       6.47454642       1.86904056      -0.66080563       0.00000000       0.00000000       0.00000000      -4.67968259      -0.00000055      -0.00000173       0.00000060
Li       3.23727321       7.47616224       3.30402814       0.00000000       0.00000000       0.00000000      -4.67968295      -0.00000108       0.00000111       0.00000179
O        3.23727321       0.00000000       0.00000000       0.00000000       0.00000000       0.00000000      -5.38304437       0.00000162      -0.00000024       0.00000018
Li       4.85590982       2.80356084       1.98241688       0.00000000       0.00000000       0.00000000      -4.67968244      -0.00000018       0.00000012       0.00000111
Li       1.61863661       0.93452028       0.66080563       0.00000000       0.00000000       0.00000000      -4.67968267      -0.00000053      -0.00000110      -0.00000074
O        1.61863661       0.93452028       2.64322251       0.00000000       0.00000000       0.00000000      -5.38304491      -0.00000169      -0.00000016       0.00000350
Li       6.47454642       3.73808112       4.62563939       0.00000000       0.00000000       0.00000000      -4.67968276      -0.00000214      -0.00000204      -0.00000110
Li       3.23727321       1.86904056       3.30402814       0.00000000       0.00000000       0.00000000      -4.67968277      -0.00000017       0.00000009       0.00000188
O        3.23727321       1.86904056       5.28644502       0.00000000       0.00000000       0.00000000      -5.38304473      -0.00000307      -0.00000282       0.00000138
Li       8.09318303       4.67260140       7.26886190       0.00000000       0.00000000       0.00000000      -4.67968262       0.00000424       0.00000185       0.00000279
Li       4.85590982       2.80356084       5.94725064       0.00000000       0.00000000       0.00000000      -4.67968264      -0.00000142      -0.00000115      -0.00000302
O        4.85590982       2.80356084       7.92966752       0.00000000       0.00000000       0.00000000      -5.38304437      -0.00000085       0.00000019       0.00000055
Li       3.23727321       1.86904056      -0.66080563       0.00000000       0.00000000       0.00000000      -4.67968287      -0.00000148      -0.00000048      -0.00000043
Li       6.47454642       3.73808112       8.59047315       0.00000000       0.00000000       0.00000000      -4.67968285      -0.00000098      -0.00000044       0.00000403
O       -0.00000000      -0.00000000      -0.00000000       0.00000000       0.00000000       0.00000000      -5.38304401      -0.00000393      -0.00000196       0.00000042
Li       6.47454642       5.60712168       1.98241688       0.00000000       0.00000000       0.00000000      -4.67968260      -0.00000162       0.00000104       0.00000078
Li       3.23727321       3.73808112       0.66080563       0.00000000       0.00000000       0.00000000      -4.67968266      -0.00000070      -0.00000173      -0.00000251
O        3.23727321       3.73808112       2.64322251       0.00000000       0.00000000       0.00000000      -5.38304443       0.00000155      -0.00000186      -0.00000149
Li       8.09318303       6.54164196       4.62563939       0.00000000       0.00000000       0.00000000      -4.67968280       0.00000083       0.00000037       0.00000193
Li       4.85590982       4.67260140       3.30402814       0.00000000       0.00000000       0.00000000      -4.67968254       0.00000011       0.00000065       0.00000192
O        4.85590982       4.67260140       5.28644502       0.00000000       0.00000000       0.00000000      -5.38304473       0.00000260      -0.00000014      -0.00000089
Li       9.71181963       0.00000000       1.98241688       0.00000000       0.00000000       0.00000000      -4.67968265      -0.00000180      -0.00000136      -0.00000024
Li       6.47454642       5.60712168       5.94725064       0.00000000       0.00000000       0.00000000      -4.67968255      -0.00000224       0.00000379      -0.00000157
O        6.47454642      -1.86904056       2.64322251       0.00000000       0.00000000       0.00000000      -5.38304455      -0.00000181      -0.00000013      -0.00000206
Li       8.09318303       8.41068252       1.98241688       0.00000000       0.00000000       0.00000000      -4.67968256       0.00000419       0.00000248       0.00000093
Li       4.85590982       6.54164196       0.66080563       0.00000000       0.00000000       0.00000000      -4.67968282      -0.00000216      -0.00000145      -0.00000017
O        4.85590982       6.54164196       2.64322251       0.00000000       0.00000000       0.00000000      -5.38304485       0.00000238      -0.00000129      -0.00000264
Li       9.71181963       1.86904056      -0.66080563       0.00000000       0.00000000       0.00000000      -4.67968288      -0.00000219       0.00000062      -0.00000217
Li       6.47454642       7.47616224       3.30402814       0.00000000       0.00000000       0.00000000      -4.67968271      -0.00000050       0.00000005       0.00000345
O        6.47454642       0.00000000       0.00000000       0.00000000       0.00000000       0.00000000      -5.38304467      -0.00000118       0.00000040       0.00000081
Li       3.23727321       0.00000000       1.98241688       0.00000000       0.00000000       0.00000000      -4.67968268      -0.00000175      -0.00000012      -0.00000042
Li       6.47454642       9.34520280       0.66080563       0.00000000       0.00000000       0.00000000      -4.67968253       0.00000065       0.00000564      -0.00000160
O        6.47454642       1.86904056      -2.64322251       0.00000000       0.00000000       0.00000000      -5.38304461      -0.00000141       0.00000022       0.00000050
Li       8.09318303       0.93452028       4.62563939       0.00000000       0.00000000       0.00000000      -4.67968273       0.00000262      -0.00000166       0.00000021
Li       4.85590982      -0.93452028       3.30402814       0.00000000       0.00000000       0.00000000      -4.67968293      -0.00000070      -0.00000028       0.00000018
O        4.85590982      -0.93452028       5.28644502       0.00000000       0.00000000       0.00000000      -5.38304461      -0.00000148       0.00000175       0.00000149
Li       3.23727321       5.60712168       1.98241688       0.00000000       0.00000000       0.00000000      -4.67968273      -0.00000041       0.00000262       0.00000048
Li       6.47454642       0.00000000       5.94725064       0.00000000       0.00000000       0.00000000      -4.67968267      -0.00000068      -0.00000095      -0.00000040
O       -0.00000000       3.73808112       2.64322251       0.00000000       0.00000000       0.00000000      -5.38304455      -0.00000209      -0.00000102      -0.00000026
Li       8.09318303       2.80356084       1.98241688       0.00000000       0.00000000       0.00000000      -4.67968260       0.00000101       0.00000038      -0.00000078
Li       4.85590982       0.93452028       0.66080563       0.00000000       0.00000000       0.00000000      -4.67968268      -0.00000039      -0.00000178      -0.00000067
O        4.85590982       0.93452028       2.64322251       0.00000000       0.00000000       0.00000000      -5.38304491       0.00000154       0.00000215       0.00000035
Li       9.71181963       3.73808112       4.62563939       0.00000000       0.00000000       0.00000000      -4.67968281      -0.00000161      -0.00000244       0.00000214
Li       6.47454642       1.86904056       3.30402814       0.00000000       0.00000000       0.00000000      -4.67968257      -0.00000232       0.00000124       0.00000124
O        6.47454642       1.86904056       5.28644502       0.00000000       0.00000000       0.00000000      -5.38304461      -0.00000042      -0.00000070      -0.00000082
Li       4.85590982       8.41068252       1.98241688       0.00000000       0.00000000       0.00000000      -4.67968271      -0.00000184       0.00000121       0.00000208
Li       8.09318303       2.80356084       5.94725064       0.00000000       0.00000000       0.00000000      -4.67968273       0.00000359      -0.00000208      -0.00000088
O        1.61863661       6.54164196       2.64322251       0.00000000       0.00000000       0.00000000      -5.38304461      -0.00000320      -0.00000160      -0.00000332
Li       8.09318303       4.67260140      -0.66080563       0.00000000       0.00000000       0.00000000      -4.67968259       0.00000454      -0.00000009      -0.00000007
Li       4.85590982       2.80356084      -1.98241688       0.00000000       0.00000000       0.00000000      -4.67968265      -0.00000224      -0.00000181       0.00000097
O        4.85590982       2.80356084       0.00000000       0.00000000       0.00000000       0.00000000      -5.38304467       0.00000221       0.00000077       0.00000168
Li       9.71181963       5.60712168       1.98241688       0.00000000       0.00000000       0.00000000      -4.67968254      -0.00000294       0.00000258      -0.00000239
Li       6.47454642       3.73808112       0.66080563       0.00000000       0.00000000       0.00000000      -4.67968251      -0.00000143      -0.00000204      -0.00000032
O        6.47454642       3.73808112       2.64322251       0.00000000       0.00000000       0.00000000      -5.38304491      -0.00000063      -0.00000240      -0.00000216
Li      11.33045624       6.54164196       4.62563939       0.00000000       0.00000000       0.00000000      -4.67968283       0.00000363       0.00000183       0.00000116
Li       8.09318303       4.67260140       3.30402814       0.00000000       0.00000000       0.00000000      -4.67968266       0.00000117       0.00000142       0.00000095
O        8.09318303       4.67260140       5.28644502       0.00000000       0.00000000       0.00000000      -5.38304431       0.00000435      -0.00000015      -0.00000214
Li       6.47454642       3.73808112      -3.30402814       0.00000000       0.00000000       0.00000000      -4.67968277       0.00000130       0.00000126      -0.00000458
Li       9.71181963       5.60712168       5.94725064       0.00000000       0.00000000       0.00000000      -4.67968271      -0.00000227       0.00000157       0.00000160
O        3.23727321       1.86904056      -2.64322251       0.00000000       0.00000000       0.00000000      -5.38304473      -0.00000105       0.00000143      -0.00000213
Li       3.23727321       3.73808112       4.62563939       0.00000000       0.00000000       0.00000000      -4.67968290       0.00000101      -0.00000196       0.00000010
Li       6.47454642       5.60712168      -1.98241688       0.00000000       0.00000000       0.00000000      -4.67968259      -0.00000036       0.00000230      -0.00000187
O        6.47454642       5.60712168       0.00000000       0.00000000       0.00000000       0.00000000      -5.38304455      -0.00000248       0.00000142       0.00000041
Li       4.85590982       4.67260140       7.26886190       0.00000000       0.00000000       0.00000000      -4.67968251      -0.00000141       0.00000300       0.00000175
Li       8.09318303       6.54164196       0.66080563       0.00000000       0.00000000       0.00000000      -4.67968276       0.00000424      -0.00000169       0.00000017
O        8.09318303       6.54164196       2.64322251       0.00000000       0.00000000       0.00000000      -5.38304473       0.00000400      -0.00000253      -0.00000138
Li       6.47454642      -1.86904056       4.62563939       0.00000000       0.00000000       0.00000000      -4.67968283       0.00000091      -0.00000150       0.00000188
Li       9.71181963       7.47616224       3.30402814       0.00000000       0.00000000       0.00000000      -4.67968276      -0.00000151       0.00000165       0.00000025
O        9.71181963       0.00000000       0.00000000       0.00000000       0.00000000       0.00000000      -5.38304431      -0.00000159      -0.00000169       0.00000007
Li       4.85590982       4.67260140      -0.66080563       0.00000000       0.00000000       0.00000000      -4.67968260      -0.00000166      -0.00000090       0.00000042
Li       8.09318303      -0.93452028       3.30402814       0.00000000       0.00000000       0.00000000      -4.67968268       0.00000316      -0.00000022       0.00000271
O        1.61863661       2.80356084      -0.00000000       0.00000000       0.00000000       0.00000000      -5.38304461      -0.00000030       0.00000412      -0.00000078
Li      11.33045624       2.80356084       1.98241688       0.00000000       0.00000000       0.00000000      -4.67968251       0.00000496      -0.00000084      -0.00000104
Li       8.09318303       0.93452028       0.66080563       0.00000000       0.00000000       0.00000000      -4.67968272       0.00000138      -0.00000284      -0.00000100
O        8.09318303       0.93452028       2.64322251       0.00000000       0.00000000       0.00000000      -5.38304485       0.00000309       0.00000312       0.00000023
Li       6.47454642       7.47616224      -0.66080563       0.00000000       0.00000000       0.00000000      -4.67968263      -0.00000032      -0.00000079      -0.00000325
Li       9.71181963       1.86904056       3.30402814       0.00000000       0.00000000       0.00000000      -4.67968270      -0.00000196      -0.00000165       0.00000215
O        3.23727321       5.60712168      -0.00000000       0.00000000       0.00000000       0.00000000      -5.38304425       0.00000051       0.00000329      -0.00000216
Li       4.85590982       0.93452028       4.62563939       0.00000000       0.00000000       0.00000000      -4.67968306      -0.00000105       0.00000026       0.00000099
Li       8.09318303       2.80356084      -1.98241688       0.00000000       0.00000000       0.00000000      -4.67968250       0.00000422       0.00000044      -0.00000080
O        8.09318303       2.80356084       0.00000000       0.00000000       0.00000000       0.00000000      -5.38304473       0.00000240       0.00000153       0.00000258
Li       6.47454642       1.86904056       7.26886190       0.00000000       0.00000000       0.00000000      -4.67968254       0.00000064      -0.00000152       0.00000237
Li       9.71181963       3.73808112       0.66080563       0.00000000       0.00000000       0.00000000      -4.67968265      -0.00000101       0.00000074      -0.00000355
O        9.71181963       3.73808112       2.64322251       0.00000000       0.00000000       0.00000000      -5.38304461      -0.00000272      -0.00000187      -0.00000118
Li       1.61863661       6.54164196       4.62563939       0.00000000       0.00000000       0.00000000      -4.67968298       0.00000032      -0.00000012       0.00000087
Li      11.33045624       4.67260140       3.30402814       0.00000000       0.00000000       0.00000000      -4.67968269       0.00000474       0.00000070       0.00000061
O        4.85590982       8.41068252      -0.00000000       0.00000000       0.00000000       0.00000000      -5.38304497      -0.00000181      -0.00000128      -0.00000106
Li       1.61863661       2.80356084       1.98241688       0.00000000       0.00000000       0.00000000      -4.67968252       0.00000076      -0.00000072      -0.00000033
Li      11.33045624       0.93452028       0.66080563       0.00000000       0.00000000       0.00000000      -4.67968257       0.00000440      -0.00000144      -0.00000044
O        4.85590982       4.67260140      -2.64322251       0.00000000       0.00000000       0.00000000      -5.38304455      -0.00000074       0.00000217       0.00000052
96
Lattice="-1.9307577758809202e-10 7.476162239080607 5.286445016500565 6.474546421934722 -3.738081119441767 5.286445016504427 6.474546421934722 3.7380811194457637 -5.2864450165016" Properties=species:S:1:pos:R:3:momenta:R:3:energies:R:1:forces:R:3 energy=-471.7136479614571 free_energy=-471.7136479614571 stress="-0.05976358870550606 1.1338275421256814e-05 1.4933261131846951e-05 1.1338275421256814e-05 -0.059766523318312954 4.144895326481931e-06 1.4933261131846951e-05 4.144895326481931e-06 -0.059838256213202594" pbc="T T T"
Li       4.85450415       6.55122016       4.63079987       0.05881287       0.02486965       0.00750855      -4.68119880       0.08253693      -0.00621338      -0.03623834
Li       1.62513859       4.67740791       3.31260057       0.04055855      -0.12090079      -0.04627876      -4.67849714      -0.03231445      -0.06284076      -0.03843462
O        1.62847394       4.67079777       5.29433381       0.14229811      -0.06351507      -0.00226238      -5.38078428      -0.03365650       0.03015130      -0.06723614
Li       6.48220780       0.00198432       1.97599623       0.03538347      -0.01769195       0.02757811      -4.67451781      -0.08696979       0.00270068       0.03181413
Li       3.25243071       5.61274070       5.94194816       0.01271040      -0.01112586      -0.01287417      -4.67496519      -0.03450794      -0.03910127       0.03965957
O        3.25296097      -1.86080806       2.64810180       0.07216815       0.14190409       0.04108967      -5.38169046      -0.07422302      -0.01008061      -0.00271632
Li       6.47248312       1.88137010      -0.64859903      -0.02632435      -0.00968230      -0.08311060      -4.68281223       0.00326818      -0.06655074      -0.10388039
Li       3.23584936       7.47211078       3.31877321       0.03558401      -0.00192159       0.07431934      -4.67531921       0.02300095       0.03390761      -0.06551528
O        3.24216027       0.00211839      -0.00685138      -0.01171949       0.02328762      -0.04893500      -5.38759403      -0.00860676      -0.01772012       0.06908071
Li       4.84757065       2.81492140       1.98628495      -0.00172070       0.02348671       0.04332642      -4.67489371       0.07859252      -0.06004098       0.02444776
Li       1.62706985       0.93219147       0.65445681       0.04812868      -0.02083118      -0.05952554      -4.68141475      -0.02154769       0.00312984       0.02037701
O        1.62274835       0.93537644       2.63229215       0.09448568      -0.02733591      -0.00141667      -5.38104643      -0.03103266      -0.01726724       0.06173527
Li       6.46058451       3.73306062       4.62224933      -0.02220780       0.02796960       0.03510905      -4.68523906       0.04163878       0.01928426       0.01926580
Li       3.22994959       1.87987649       3.30198295      -0.05529064       0.03955093      -0.00689633      -4.68538724       0.03921792      -0.06052150      -0.00874359
O        3.24191179       1.86440274       5.27707147       0.06684660       0.02194396       0.04136863      -5.38782495      -0.04637031       0.01868083       0.07789773
Li       8.09690615       4.66252245       7.27096932       0.05140941      -0.01165116      -0.01720496      -4.68316992      -0.04023105       0.03492355       0.01240291
Li       4.85216144       2.79635042       5.95901793       0.03962988       0.08030544       0.01726572      -4.67673171       0.02002076       0.03395566      -0.06487410
O        4.85649201       2.80330329       7.92703816       0.04296217      -0.11829099       0.03694345      -5.38740639      -0.04077643      -0.00981681       0.00490018
Li       3.23533926       1.87427437      -0.67159890       0.00901087       0.05050770      -0.03454762      -4.68588827       0.01165813      -0.00040966       0.02416079
Li       6.46385941       3.73005174       8.59304319      -0.03136884      -0.04812854       0.00082536      -4.67482600       0.07101400       0.03724256       0.00167208
O        0.00328516      -0.00397523      -0.00184703       0.02120018      -0.08737133      -0.03796376      -5.37656643      -0.01725243       0.00392638       0.00336331
Li       6.48235070       5.59998567       1.98505547      -0.02122630      -0.03302752       0.04698226      -4.68118739      -0.02694960       0.03228039      -0.02697265
Li       3.23646981       3.72545393       0.66735430       0.02128675       0.02621275       0.03488595      -4.67609079      -0.00147979       0.07881306      -0.05158715
O        3.23393090       3.73504801       2.64209551      -0.09734672       0.05177965      -0.07046841      -5.38717012      -0.00876230       0.09850477      -0.00828399
Li       8.08917938       6.53510985       4.63305882       0.00158601       0.01934214       0.03594850      -4.67882921      -0.00597629       0.03902417      -0.03252962
Li       4.84759575       4.68081175       3.29466375      -0.00490251      -0.00463214      -0.07190829      -4.67403017       0.05313014      -0.00915416       0.05868310
O        4.85480477       4.66545712       5.28577761      -0.06967855      -0.09667977      -0.06634845      -5.37948279      -0.00544766       0.06197425      -0.01258938
Li       9.70071260      -0.01412752       1.98485402       0.01837981      -0.08339698       0.02895463      -4.67548562       0.02613702       0.05549901      -0.01906713
Li       6.47743933       5.60767376       5.94909654       0.02822014       0.00296482       0.02802798      -4.67748601      -0.02729902      -0.02493409      -0.02312775
O        6.47403738      -1.87269528       2.63841752      -0.10430723      -0.06577370      -0.15218132      -5.38405076       0.01686732       0.00662501       0.03603085
Li       8.09922547       8.43341513       1.98743728       0.03206200       0.00991762       0.00408088      -4.68212507       0.01787161      -0.08854967      -0.04811546
Li       4.86860277       6.53895154       0.65016818      -0.00785394       0.00514532       0.04230190      -4.67786188      -0.02525766       0.01486206       0.03367775
O        4.86455952       6.54559301       2.64279644       0.07429023       0.00550854       0.02022682      -5.38061652      -0.07256816      -0.04319450       0.00206860
Li       9.71486315       1.87501309      -0.65782119      -0.01966856      -0.06705493       0.06801434      -4.68095594       0.00196381      -0.05547647       0.01278892
Li       6.48784999       7.48274576       3.29814951       0.04814181      -0.04688447       0.02063559      -4.68861785      -0.02245657      -0.03267598       0.04566959
O        6.47161257       0.00903490      -0.00355763      -0.02583067       0.11900885       0.00435501      -5.38052802       0.02335961      -0.03078494       0.07009404
Li       3.23974050      -0.00038799       1.98447227       0.01892908      -0.01952128      -0.10152538      -4.67913214       0.05987259       0.02939322      -0.00925647
Li       6.47378765       9.34253258       0.66278071       0.00011011      -0.01326929      -0.02403116      -4.68463346      -0.01256490       0.01395254      -0.03994186
O        6.49157114       1.86174822      -2.64268097       0.20507475       0.05605858      -0.05608715      -5.38399612      -0.10518128       0.12466361       0.02234649
Li       8.10102198       0.93310815       4.62501310       0.01683799      -0.00506684      -0.02008980      -4.68046303      -0.01215670      -0.01275153       0.03609282
Li       4.86878081      -0.93330666       3.31857558       0.06445457      -0.07956400       0.05101445      -4.68163958      -0.01414992       0.02347285      -0.05347858
O        4.86571897      -0.94201609       5.30211449       0.09823171      -0.06403302       0.02996392      -5.38175452      -0.08922939       0.05160607      -0.10065682
Li       3.24136070       5.61794220       1.97647584       0.04949254       0.01207628      -0.03908496      -4.67669733       0.01308749      -0.02511111      -0.02428139
Li       6.46682026      -0.00305468       5.95487346      -0.07461301       0.00477370       0.02419292      -4.68808723       0.01459471      -0.00695560      -0.02726797
O       -0.01012765       3.72671993       2.65083320      -0.17291715      -0.05038653       0.11327286      -5.37959777       0.07277308       0.10568652      -0.03583234
Li       8.09449945       2.80696185       1.96775057      -0.01781144       0.05273872       0.00086375      -4.66957721      -0.03298751       0.00760383       0.08589241
Li       4.85821154       0.95036123       0.67086477      -0.00370627       0.01539854       0.00534049      -4.67976682      -0.02345776      -0.04203082      -0.03650516
O        4.86505377       0.94657055       2.64952302      -0.02527948       0.08752721       0.07412138      -5.37160181      -0.05496029      -0.07090216      -0.02476731
Li       9.71198793       3.74099228       4.62996032      -0.07077706      -0.00986723      -0.00277150      -4.68910588      -0.02427197      -0.02327604      -0.01652815
Li       6.48392981       1.86909842       3.31574248       0.03546043      -0.00831355      -0.01239798      -4.68813330      -0.04139867      -0.00979534      -0.07484246
O        6.47592883       1.86471470       5.28577764       0.01774864      -0.05348742       0.06108161      -5.38472978       0.00999840       0.01773035       0.09198303
Li       4.86130288       8.39937405       1.99450082      -0.03863478       0.02819699       0.01713012      -4.67830394      -0.03133999       0.02254170      -0.05281558
Li       8.08461010       2.80025423       5.96490750      -0.00080125       0.03353206       0.01095040      -4.67475362       0.03665632       0.01971335      -0.14387659
O        1.61974115       6.54430748       2.65070388      -0.04238521       0.05655277       0.17235784      -5.38954189      -0.00170677      -0.07280184      -0.03313463
Li       8.09401838       4.66763547      -0.66066028      -0.03300113       0.02834277      -0.00401154      -4.67730736      -0.04351775       0.07659789      -0.01852787
Li       4.86135264       2.80811173      -1.99358714      -0.01025624      -0.08005040      -0.09221925      -4.67085533      -0.03237164      -0.03653741       0.05107733
O        4.84474990       2.80576919      -0.00576136       0.02612581      -0.05263384      -0.07668204      -5.38459817       0.07898988       0.00956103       0.03349748
Li       9.70399418       5.61273639       1.97595765       0.05053812       0.03935355       0.03946859      -4.67358713       0.01563880      -0.06021284       0.05000969
Li       6.47651876       3.73050603       0.66404404       0.01733237       0.02819960       0.03327401      -4.67788553      -0.06689179       0.08737624      -0.01805225
O        6.47948375       3.73142572       2.64057511       0.03096826      -0.01680039       0.06845385      -5.38285656      -0.06318764       0.03904114       0.00223872
Li      11.32137771       6.55706198       4.61248623      -0.00865109      -0.01085042      -0.05064770      -4.68452407       0.00930787      -0.06752928       0.08892381
Li       8.08856936       4.66687389       3.30355766       0.04179930      -0.07072762      -0.04757825      -4.68208253       0.01769667      -0.01170773       0.02267870
O        8.08379307       4.66800483       5.28588096      -0.06867158      -0.00756830      -0.00858425      -5.37986911       0.05083160       0.02384869       0.04622446
Li       6.47685876       3.72729919      -3.30339143      -0.06023045      -0.08672534      -0.06230792      -4.67470693       0.04211428       0.03828897      -0.04493228
Li       9.71021470       5.60691987       5.95754587      -0.01601684      -0.02922215      -0.00670045      -4.67588854       0.02081564      -0.01211856      -0.05702272
O        3.22498989       1.86394352      -2.63662347       0.00332541      -0.08861536       0.07372340      -5.38452041       0.10635576       0.01164802      -0.07196886
Li       3.23797522       3.73729677       4.62495830       0.03093334      -0.01542173      -0.02949004      -4.68014741       0.03310572      -0.00694181       0.02523963
Li       6.46557922       5.60199745      -1.99276770      -0.04256202       0.06649104      -0.08055982      -4.68360420       0.04413941       0.00832659       0.05541178
O        6.47712766       5.60287954      -0.00365692       0.01922265       0.02990924      -0.05062472      -5.37625841      -0.00488167       0.00434460      -0.00773807
Li       4.86034668       4.67493481       7.26809000       0.00626582       0.03285559      -0.00637042      -4.68603547      -0.02073544       0.00335226       0.01168360
Li       8.09602556       6.53845138       0.65446109       0.01072171      -0.06180467       0.00190308      -4.68336277      -0.04317590       0.04074848       0.02479838
O        8.08419415       6.53583426       2.63835634      -0.05118353       0.03077862      -0.06789776      -5.38324930       0.11317241       0.03890794       0.02361678
Li       6.48451145      -1.88188041       4.61973739      -0.03949775      -0.11756985       0.05493750      -4.67544764      -0.02539408       0.03687499       0.06797991
Li       9.69778797       7.47282713       3.30108068      -0.06297156       0.04266677       0.06117106      -4.67569786       0.02712303       0.04154142       0.00658626
O        9.70058029       0.01040894      -0.00435254      -0.11944158       0.11502407      -0.01366591      -5.37542951       0.03190444      -0.07103895       0.05144345
Li       4.84452197       4.67173296      -0.66494951      -0.00086100       0.00232315      -0.00799804      -4.68849732       0.02493596       0.01100034      -0.00023720
Li       8.08304226      -0.93595588       3.29511905      -0.05250641       0.04319090      -0.10438162      -4.67724076       0.01690636      -0.01353746       0.05914175
O        1.62342759       2.80870377      -0.00072530       0.06910468       0.13564533      -0.07503068      -5.38253755      -0.04541997      -0.04191370      -0.01311703
Li      11.31602681       2.78832300       1.98751318      -0.08951592      -0.05784061       0.01973499      -4.67734618       0.03256676       0.08293608      -0.00332035
Li       8.08480935       0.94086516       0.67443458       0.00040425       0.00817217       0.04358125      -4.67782901       0.04319366      -0.03069680      -0.11318788
O        8.09171975       0.92319032       2.64256664      -0.00068062      -0.05695861       0.06120772      -5.39162581      -0.00141995       0.07478006      -0.02008602
Li       6.46993941       7.47960015      -0.66215635       0.02315524       0.01753038       0.04557698      -4.67261729       0.04449961      -0.03465962       0.00462323
Li       9.69061863       1.86759751       3.28927406      -0.01115175      -0.03011401      -0.07847102      -4.67850977       0.07777832       0.01267700       0.07323905
O        3.25077131       5.61783025      -0.01095815       0.07130472       0.02775329      -0.02633959      -5.37515175      -0.13002106      -0.07981611       0.10591157
Li       4.85719111       0.93864809       4.63186085      -0.01903961       0.06960148       0.00619332      -4.67962829       0.00737129      -0.00680313      -0.04694661
Li       8.11123820       2.82016095      -1.97419386       0.07702282      -0.02106481      -0.01269137      -4.67215109      -0.07398087      -0.07226218      -0.02831890
O        8.08194104       2.81475195       0.00388778      -0.08945680       0.04662248       0.04166591      -5.39173791       0.11093932      -0.05624725      -0.02559069
Li       6.47612093       1.87556142       7.27385279      -0.03216625      -0.00219417       0.00365114      -4.67081508      -0.02321888      -0.08413367      -0.00305984
Li       9.70836901       3.74295136       0.65860628       0.02162282       0.03283549       0.05946468      -4.67386130       0.04881968      -0.00875991       0.02769840
O        9.70664030       3.73302659       2.64192016      -0.07822517      -0.01519242      -0.00966944      -5.37995779      -0.00742015       0.04357101      -0.03869052
Li       1.62943580       6.53386085       4.62332606       0.03139270       0.02837811      -0.04998516      -4.67792387      -0.07207609       0.03817518       0.05352445
Li      11.33227292       4.66318310       3.30383783      -0.00240991       0.04283201      -0.03744971      -4.68466157      -0.04732660       0.03397393      -0.01260570
O        4.85218966       8.41873699       0.00022857      -0.07921967       0.14949194       0.03296463      -5.37824482       0.02985663      -0.02223104       0.02039864
Li       1.60988731       2.80788162       1.97248593      -0.04124040       0.03858846       0.00394488      -4.67868064       0.00458807      -0.02686617       0.05212136
Li      11.32712869       0.93987648       0.67641974      -0.02369381      -0.00488047       0.08093140      -4.68431757       0.01679104      -0.04834968      -0.07999264
O        4.84520438       4.67199308      -2.65074999      -0.05371239      -0.01150654       0.01538045      -5.38859080       0.04142865      -0.08810156       0.04231956
96
Lattice="-1.9307577758809202e-10 7.476162239080607 5.286445016500565 6.474546421934722 -3.738081119441767 5.286445016504427 6.474546421934722 3.7380811194457637 -5.2864450165016" Properties=species:S:1:pos:R:3:momenta:R:3:energies:R:1:forces:R:3 energy=-471.6585999033749 free_energy=-471.6585999033749 stress="-0.060013042052197096 3.2243096585865624e-05 3.551359452751339e-05 3.2243096585865624e-05 -0.06000217798048872 4.989228036136116e-06 3.551359452751339e-05 4.989228036136116e-06 -0.05985267784621651" pbc="T T T"
Li       4.88719455       6.55533387       4.62236680      -0.02184824       0.10450631      -0.00951062      -4.68038497      -0.15714316      -0.01468757       0.03586813
Li       1.63543719       4.66117265       3.27982565       0.00527834       0.02495890      -0.02449629      -4.68258946      -0.03301402       0.07872362       0.10466324
O        1.64493703       4.65706820       5.28229923       0.02299235      -0.12653942      -0.08450446      -5.38228296      -0.17092545       0.04733260      -0.02895736
Li       6.44770005       0.00519375       1.98739344      -0.14264244      -0.01090678       0.00825275      -4.67425525       0.16162466      -0.07354578      -0.09946449
Li       3.23776023       5.58713396       5.93154616       0.01316334      -0.06116010      -0.06653239      -4.67771972       0.08541223       0.14100064       0.01547240
O        3.25343621      -1.85761087       2.65116987       0.01073154      -0.17348481      -0.05614002      -5.38173819      -0.07331362      -0.11071659      -0.07626761
Li       6.48220834       1.88410073      -0.69108797       0.08387668       0.03799592      -0.04718599      -4.67960011       0.01824562      -0.00988522       0.13839155
Li       3.23993784       7.46872018       3.32369989       0.02324670      -0.04875434       0.05411187      -4.68810723      -0.02407658       0.02545518      -0.02359675
O        3.23891306      -0.00277672       0.00715526      -0.03255356      -0.05343389       0.18505894      -5.37216232       0.05159778       0.05416342      -0.03160455
Li       4.86681902       2.78974182       2.00666921       0.03762218      -0.11526078      -0.01335786      -4.68043578      -0.08613110       0.09693343      -0.11394891
Li       1.62432798       0.93824758       0.67018962       0.01723233       0.06439547       0.04778172      -4.66807435       0.07328650      -0.02194401      -0.06616630
O        1.63336801       0.92509695       2.63838508       0.01282121      -0.04114189       0.02275719      -5.37901337      -0.09999959       0.13651612      -0.00635343
Li       6.46855725       3.74571531       4.62396913       0.13760626      -0.04286705       0.06808442      -4.67691568       0.03784865      -0.10427080       0.00134222
Li       3.23187305       1.85641077       3.29870172       0.05886870      -0.12587142      -0.06679930      -4.67604935      -0.01416908       0.04914826      -0.01165262
O        3.24066893       1.87291411       5.29486367      -0.16692087       0.07964679       0.06088771      -5.38042336       0.04070672      -0.02008600      -0.09796877
Li       8.08033356       4.67014712       7.28287633      -0.10250520       0.04353978       0.11092081      -4.67880291       0.04806320      -0.04445064      -0.02997559
Li       4.86618191       2.81888137       5.94687887       0.04066700      -0.03914269      -0.08823488      -4.68382317      -0.03680462      -0.11155212       0.08813067
O        4.84437062       2.79189653       7.93844881      -0.13462982       0.12477721       0.15584724      -5.37724516       0.02979024       0.12384463      -0.03903007
Li       3.25435478       1.88816566      -0.65658422      -0.01393627      -0.00704923       0.06737317      -4.67945447      -0.10759657      -0.10030379      -0.01815974
Li       6.47440470       3.73484859       8.60087246       0.00688841      -0.04632298      -0.00459748      -4.68719489      -0.07112823      -0.04006866      -0.04269463
O       -0.00408278      -0.00545512      -0.01124776      -0.07620131       0.16760119      -0.00519687      -5.39063269       0.03174926       0.03449971       0.11672064
Li       6.47184060       5.60060947       1.97585440       0.08000634       0.06542734      -0.04212902      -4.67800076       0.02725604       0.06067641       0.02502021
Li       3.24560513       3.75161497       0.64658339       0.02803061       0.05056138      -0.09770344      -4.68582380       0.00190282      -0.03393520       0.11888917
O        3.22680822       3.74162282       2.61831296       0.07203260      -0.05348107      -0.10881531      -5.37075466       0.12932246      -0.06708776       0.15202193
Li       8.08080720       6.53667485       4.62379364      -0.02276146       0.00542881      -0.02744771      -4.68488046       0.02369089       0.01369242       0.02053990
Li       4.85524584       4.67058620       3.30894641       0.00266240      -0.04964358       0.09651616      -4.67346597      -0.04054776       0.05038176      -0.08621050
O        4.85489457       4.66420321       5.27671887       0.04217302       0.13710352       0.06790180      -5.39156805       0.04698221       0.06295232       0.02847153
Li       9.70793070      -0.00281341       1.98807364      -0.02553615       0.09776158       0.01262552      -4.67655746      -0.05272930      -0.03109133      -0.01104414
Li       6.45887730       5.60052885       5.95058112      -0.03914394      -0.00874054      -0.02255946      -4.68005534       0.06243825       0.03081120       0.03172437
O        6.46457667      -1.88086705       2.63043609       0.02664576      -0.03706327       0.10610870      -5.38154089       0.04303183       0.09756190       0.15777971
Li       8.11664772       8.40233499       1.95680415       0.01814252      -0.09069125      -0.08614324      -4.67050670      -0.10806965       0.06863668       0.06523237
Li       4.86829188       6.56075444       0.66315360      -0.06467373       0.10486376       0.01443158      -4.68465452      -0.05267455      -0.03747663      -0.06557342
O        4.86022095       6.55006221       2.64375830       0.00374450      -0.03101795       0.00741692      -5.38209515       0.06320122      -0.04328004      -0.00931277
Li       9.70705318       1.86501471      -0.64656187      -0.11189750       0.12475549      -0.05325930      -4.67459353       0.06037182       0.09408038      -0.04073934
Li       6.48593775       7.48237752       3.29503764      -0.01448705      -0.01608111      -0.05931567      -4.67440627       0.00185869       0.03402154      -0.03144671
O        6.46715149       0.01130185       0.00456328      -0.09557658      -0.07371962       0.13173048      -5.37706058       0.05235276      -0.03588311      -0.08875071
Li       3.26357916      -0.00316903       1.96348047       0.02703953       0.03298293       0.01652495      -4.69069358      -0.06332394      -0.05589924       0.06841330
Li       6.46517720       9.34266083       0.63515323       0.06293415      -0.01935106      -0.04379484      -4.67002412       0.06758683       0.01190001       0.12075100
O        6.49042763       1.89233344      -2.65374060      -0.23847700       0.28986216      -0.06799163      -5.37938984      -0.05638133      -0.22844308      -0.04788382
Li       8.08369423       0.91256851       4.64130827      -0.03659910      -0.00486298       0.02990649      -4.68043132       0.05829358       0.13737326      -0.07343090
Li       4.87344766      -0.92253368       3.32388365      -0.05191253       0.06985317       0.01398279      -4.67975025      -0.09149913      -0.11598179      -0.01407259
O        4.86574449      -0.95140568       5.29551440      -0.11428327       0.01312504      -0.12125038      -5.37809020      -0.07667377       0.15084375       0.00313804
Li       3.24674767       5.62274584       1.96958536      -0.04069110       0.01820079       0.15994343      -4.67714375      -0.02615770      -0.03451469       0.05754137
Li       6.46586128      -0.00688934       5.94725701       0.06994902       0.01699502      -0.04453406      -4.67561296      -0.03347989       0.03151827       0.01223733
O       -0.02586234       3.74087364       2.63727015       0.18155678       0.12937174      -0.20514946      -5.38719936       0.17306739      -0.06681851       0.11267927
Li       8.06781828       2.80977653       1.98276197       0.07477053      -0.11065616      -0.07011631      -4.68031807       0.13645730      -0.08579161      -0.05737190
Li       4.86733283       0.95726064       0.66522920       0.06452929      -0.01907118      -0.02120048      -4.67157575      -0.01525742      -0.06292599      -0.08394354
O        4.86110243       0.93409781       2.65102407      -0.01028893      -0.14777503      -0.04777001      -5.40266386      -0.00408894       0.03898826      -0.01060816
Li       9.69901588       3.73925617       4.61987557       0.06764500       0.01524679      -0.05234879      -4.67490307       0.05556581      -0.00475627       0.02494521
Li       6.49062638       1.84762428       3.29591705      -0.02570414      -0.01074771      -0.01040445      -4.67168478      -0.01712964       0.07860845       0.12422594
O        6.47671429       1.85848234       5.29708854      -0.04874569       0.02186270      -0.00695830      -5.37359315      -0.01603952       0.07904936      -0.08944691
Li       4.85179066       8.42007825       1.98646994       0.00337171       0.08329822      -0.05144804      -4.67961007       0.00959104      -0.01563217      -0.02059128
Li       8.09646026       2.80335030       5.94309021      -0.01343883      -0.03862948      -0.00621020      -4.67892922      -0.07120429      -0.01393158       0.06234916
O        1.61117522       6.53286175       2.66749237      -0.07884989      -0.07329960      -0.05291693      -5.37690687       0.06330053       0.03604209      -0.18703463
Li       8.09415859       4.68462946      -0.66193887       0.05328310       0.00147616       0.05317956      -4.67832296       0.01961338      -0.14655293      -0.01225986
Li       4.85512683       2.78597409      -1.99265310      -0.03219195      -0.11785283       0.04918106      -4.66933068       0.03571268       0.13048524      -0.02196231
O        4.86561075       2.80334754      -0.00829463       0.16202435       0.07759583      -0.00321016      -5.38888520      -0.03318562       0.02759124       0.04710722
Li       9.70945546       5.61138411       2.00252003      -0.06353256      -0.05994551      -0.01734442      -4.68184777       0.00519014       0.02985380      -0.06903077
Li       6.46405745       3.74733553       0.65941894       0.04985943       0.03574042      -0.12470470      -4.67623221       0.07008977      -0.09128432      -0.03188088
O        6.47094922       3.72858690       2.63474532      -0.14214213      -0.00213852      -0.05237712      -5.39121145      -0.03980277       0.06786585       0.08966929
Li      11.31337595       6.53233288       4.63586384      -0.05077794      -0.03279019       0.04185662      -4.68220219       0.00425810       0.11180759      -0.06752560
Li       8.08325048       4.65180328       3.29683116      -0.00145224       0.04441256       0.06074712      -4.67189199       0.01616176       0.11894227       0.02858899
O        8.08040672       4.67679967       5.28975533       0.00846447       0.12678403      -0.09993696      -5.38400338       0.01833328      -0.06603120      -0.04831310
Li       6.48772224       3.72829027      -3.32845532       0.04399627       0.13134064       0.00298269      -4.68824118      -0.05920617       0.06120733       0.12455039
Li       9.69532351       5.59850969       5.94149357      -0.02732301       0.07169339      -0.05097698      -4.68041185       0.00749721       0.04864327       0.07364745
O        3.24236702       1.85588780      -2.63583401       0.14883861      -0.11259223      -0.11163973      -5.37975136      -0.07621811       0.07706948      -0.02508087
Li       3.25662529       3.73620593       4.62162148       0.05033068      -0.02747051       0.05169595      -4.67624014      -0.09237984      -0.05276076      -0.04694968
Li       6.48124292       5.61962086      -1.97557692      -0.02775735      -0.04215556       0.02925502      -4.67542676      -0.07544944      -0.11786103      -0.08928394
O        6.48101529       5.60856265      -0.00632197       0.04395541       0.04996091       0.04322051      -5.38990245      -0.01915325       0.04145671       0.04187058
Li       4.84860706       4.67848042       7.28909249      -0.10529316      -0.07239180       0.08844368      -4.67795676       0.02304709      -0.03301840      -0.03236832
Li       8.11258093       6.53036343       0.65832756       0.10997209      -0.04641426       0.09390919      -4.68086967      -0.02677678       0.02438263       0.01891784
O        8.09704784       6.54361561       2.63933900       0.01645569       0.03451091       0.05426626      -5.37754825      -0.07645217      -0.01731472       0.02147315
Li       6.47134843      -1.87652692       4.65822967      -0.03892594       0.13825921       0.03231028      -4.67322485       0.01022202      -0.02252180      -0.13857269
Li       9.69821930       7.49656788       3.30680027       0.11257320       0.10965658       0.00805261      -4.67340236       0.06723525      -0.09343620       0.04117225
O        9.70137633       0.00125247      -0.00104024       0.10119653      -0.24955296       0.10901379      -5.38699630      -0.01186331      -0.02537989       0.03074665
Li       4.87077747       4.65415442      -0.66223581       0.09445120       0.01416977      -0.00455996      -4.67694805      -0.05707032       0.11233069      -0.04860459
Li       8.07819313      -0.93756988       3.29774002       0.04508533      -0.07149239       0.16079082      -4.68160407       0.02539675      -0.01633906       0.02151790
O        1.62146324       2.82083566       0.00313563      -0.15640993      -0.09528503       0.03021386      -5.38456431      -0.03801862      -0.18184335      -0.01263677
Li      11.31945950       2.81983260       2.00283837       0.08521394       0.11947325       0.03486954      -4.67944416       0.02070203      -0.10467431      -0.10468702
Li       8.09697732       0.94383367       0.65107418       0.00820321      -0.00390544      -0.18446330      -4.68694851      -0.09267795      -0.05090140       0.08854159
O        8.08066839       0.92531477       2.64742919      -0.11558920       0.18156533      -0.07356386      -5.37359417       0.06122830       0.02828101      -0.01546222
Li       6.49630924       7.47809617      -0.65604231       0.08155585       0.02269389      -0.03255355      -4.67428200      -0.07879558       0.02675264      -0.06428804
Li       9.72633922       1.86649725       3.30155653       0.09895115      -0.08287438       0.08903697      -4.68581421      -0.15320330      -0.01891042       0.03990750
O        3.24310901       5.61886325       0.00476590      -0.19722623      -0.05736982       0.16880286      -5.37775354       0.01878786      -0.02950678      -0.06573449
Li       4.85785276       0.94280670       4.62009561       0.05181992      -0.01894417      -0.10963233      -4.67386451      -0.00079724      -0.00073042       0.09718088
Li       8.10689630       2.79400700      -1.99923820      -0.01433452      -0.09210834      -0.08735801      -4.69100079       0.03482119       0.10429695       0.04978170
O        8.09368307       2.80970787       0.00414661       0.07177835      -0.10507053       0.06932233      -5.37326675      -0.00275337       0.00664974      -0.04849974
Li       6.46966647       1.84714196       7.27552339       0.05042618      -0.01087844      -0.03149320      -4.68337460       0.00369118       0.12274449      -0.00557105
Li       9.71744999       3.75344071       0.67017130      -0.04522096       0.04413277       0.01742509      -4.68433474      -0.04803091      -0.07644395      -0.03952140
O        9.69127263       3.74022091       2.64087027      -0.10614784       0.05520037       0.02646155      -5.39091490       0.09104711      -0.00496366       0.07282888
Li       1.61203000       6.54508022       4.62920217      -0.02411939       0.01098542       0.05347531      -4.68184626       0.06251810      -0.05412417      -0.01103430
Li      11.31676426       4.69123616       3.30028619      -0.00987403       0.03146039       0.05702226      -4.67292508       0.03639410      -0.07612465       0.08332322
O        4.84884972       8.43424980       0.00821455       0.01540519      -0.09623019      -0.02181242      -5.38256198       0.04494002      -0.19695721      -0.06872320
Li       1.60389779       2.80397002       1.97524947       0.11457247      -0.06597291      -0.03276846      -4.67332505       0.09814400       0.00532020      -0.02332553
Li      11.31520160       0.92740985       0.67188748      -0.02353154      -0.07569082      -0.03168544      -4.68185792       0.03757315       0.02559772      -0.01713373
O        4.84291857       4.66629210      -2.64746336      -0.00848677      -0.00934041      -0.02759582      -5.37308476       0.11419294       0.02660644       0.05437786
